# Cost: 411

# Tail Head Net
1481 1521 1
1521 1561 1
1561 1562 1
1562 1563 1
1563 1564 1
1564 1565 1
1565 1566 1
1566 1567 1
1567 1568 1
1568 1569 1
1569 1570 1
1570 1571 1
1571 1572 1
1572 1573 1
1573 1574 1
1574 1575 1
1575 1576 1
1576 1577 1
1577 1578 1
1578 1579 1
1579 1580 1
1580 1581 1
1581 1582 1
1582 1583 1
1583 1584 1
1584 1585 1
1585 1586 1
1586 1587 1
1587 1588 1
1588 1589 1
1589 1590 1
1590 1591 1
1591 1592 1
1592 1593 1
1593 1594 1
1594 1595 1
1080 1040 2
1120 1080 2
1160 1120 2
1200 1160 2
1240 1200 2
1280 1240 2
1320 1280 2
1360 1320 2
1400 1360 2
1440 1400 2
1480 1440 2
 63  23 3
103  63 3
143 103 3
183 143 3
223 183 3
263 223 3
303 263 3
343 303 3
383 343 3
423 383 3
463 423 3
503 463 3
543 503 3
583 543 3
623 583 3
663 623 3
703 663 3
743 703 3
762 763 3
763 764 3
764 765 3
765 766 3
766 767 3
767 768 3
768 769 3
769 770 3
770 771 3
771 772 3
772 773 3
773 774 3
774 775 3
775 776 3
776 777 3
777 778 3
778 779 3
779 780 3
780 781 3
781 782 3
782 783 3
783 743 3
783 784 3
784 785 3
785 786 3
786 787 3
787 788 3
788 789 3
789 790 3
790 791 3
791 792 3
792 793 3
793 794 3
794 795 3
795 796 3
796 797 3
797 798 3
798 799 3
799 800 3
802 762 3
841 842 3
842 802 3
881 841 3
 13  14 4
 14  54 4
 54  94 4
 94  95 4
 95  96 4
 96  97 4
 97  98 4
 98  99 4
 99 139 4
139 179 4
179 219 4
219 220 4
220 260 4
260 261 4
261 301 4
301 302 4
302 342 4
342 1942 4
1942 1943 4
1943 1983 4
386 387 4
387 388 4
388 389 4
389 390 4
390 391 4
391 392 4
392 393 4
393 394 4
394 395 4
395 396 4
396 397 4
397 398 4
398 399 4
399 439 4
1983 1984 4
1984 1985 4
1985 1986 4
1986 386 4
439 440 4
440 480 4
480 520 4
520 560 4
560 600 4
600 640 4
640 680 4
680 720 4
 28 1628 5
1628 1668 5
1668 1708 5
1708 1748 5
1748 1788 5
1787 1827 5
1788 1787 5
1801 201 5
1801 1841 5
1802 1801 5
1803 1802 5
1804 1803 5
1805 1804 5
1806 1805 5
1807 1806 5
1808 1807 5
1809 1808 5
1810 1809 5
1811 1810 5
1812 1811 5
1813 1812 5
1814 1813 5
1815 1814 5
1816 1815 5
1817 1816 5
1818 1817 5
1819 1818 5
1820 1819 5
1821 1820 5
1822 1821 5
1823 1822 5
1824 1823 5
1825 1824 5
1826 1825 5
1827 1826 5
1841 1881 5
1881 1921 5
1921 1961 5
1961 2001 5
2001 2041 5
2041 2081 5
2081 2121 5
2121 2161 5
2161 2201 5
2201 2241 5
2241 2281 5
2281 2321 5
2321 2361 5
2361 2401 5
2401 2441 5
2441 2481 5
2481 2521 5
2521 2561 5
2561 961 5
 56  16 6
 67 1667 6
 68  67 6
 69  68 6
 70  69 6
 71  70 6
 72  71 6
 73  72 6
 74  73 6
 75  74 6
 76  75 6
 77  76 6
 78  77 6
 79  78 6
 80  79 6
1656  56 6
1657 1656 6
1658 1657 6
1659 1658 6
1660 1659 6
1661 1660 6
1662 1661 6
1663 1662 6
1664 1663 6
1665 1664 6
1666 1665 6
1667 1666 6
1680  80 6
1720 1680 6
1760 1720 6
1800 1760 6
1840 1800 6
1880 1840 6
1920 1880 6
1960 1920 6
2000 1960 6
2040 2000 6
2080 2040 6
2120 2080 6
2160 2120 6
2200 2160 6
2240 2200 6
2280 2240 6
2320 2280 6
2360 2320 6
840 2440 6
2400 2360 6
2440 2400 6
 41   1 7
 81  41 7
121  81 7
161 121 7
162 161 7
202 162 7
242 202 7
242 282 7
264 1864 7
265 264 7
266 265 7
267 266 7
268 267 7
269 268 7
270 269 7
271 270 7
272 271 7
273 272 7
274 273 7
275 274 7
276 275 7
277 276 7
278 277 7
279 278 7
280 279 7
282 322 7
1842 242 7
1843 1842 7
1844 1843 7
1845 1844 7
1846 1845 7
1847 1846 7
1848 1847 7
1849 1848 7
1850 1849 7
1851 1850 7
1852 1851 7
1853 1852 7
1854 1853 7
1855 1854 7
1856 1855 7
1857 1856 7
1858 1857 7
1859 1858 7
1860 1859 7
1861 1860 7
1862 1861 7
1863 1862 7
1864 1863 7
322 362 7
362 402 7
402 442 7
442 482 7
482 522 7
522 521 7
 42   2 8
 82  42 8
122  82 8
123 122 8
163 123 8
203 163 8
243 203 8
283 243 8
323 283 8
363 323 8
403 363 8
443 403 8
483 443 8
523 483 8
563 523 8
603 563 8
643 603 8
683 643 8
723 683 8
2323 723 8
2363 2323 8
2403 2363 8
2443 2403 8
2483 2443 8
2523 2483 8
1000 2600 8
2563 2523 8
2564 2563 8
2565 2564 8
2566 2565 8
2567 2566 8
2568 2567 8
2569 2568 8
2570 2569 8
2581 2580 8
2582 2581 8
2583 2582 8
2584 2583 8
2585 2584 8
2586 2585 8
2587 2586 8
2588 2587 8
2589 2588 8
2590 2589 8
2591 2590 8
2592 2591 8
2593 2592 8
2594 2593 8
2595 2594 8
2596 2595 8
2597 2596 8
2598 2597 8
2599 2598 8
2600 2599 8
2571 2570 8
2572 2571 8
2573 2572 8
2574 2573 8
2575 2574 8
2576 2575 8
2577 2576 8
2578 2577 8
2579 2578 8
2580 2579 8
  4   5 9
  5   6 9
  6   7 9
  7   8 9
  8   9 9
  9  10 9
 10  11 9
 11  12 9
 12 1612 9
1612 1613 9
1613 1614 9
1614 1615 9
1615 1616 9
1616 1617 9
1617 1618 9
1618  18 9
561 601 10
601 602 10
602 642 10
642 682 10
682 722 10
722 2322 10
2322 2362 10
2362 2402 10
2402 2442 10
882 922 10
2442 2482 10
922 962 10
2482 882 10
962 1002 10
1002 1042 10
1042 1082 10
1082 1122 10
1122 1162 10
1162 1202 10
1202 1201 10
